4408
7432
1880
7446
8163
7950
2306
1763
5349
5560
5043
1384
7129
5839
3262
659
7775
2582
7055
7473
7651
8595
7929
2435
2791
5457
1902
2720
5908
3109
6753
9742
1873
2854
6381
1308
3372
6190
5243
9995
9007
6511
5051
1501
3302
3338
8830
3470
2753
9180
